
Gurobi 10.0.1 (mac64[arm]) logging started Mon Sep 18 22:42:44 2023

Set parameter LogFile to value "scenario_capacity/CAP_g/results/CAP_g_-25/mip_log.txt"
Gurobi Optimizer version 10.0.1 build v10.0.1rc0 (mac64[arm])

CPU model: Apple M1
Thread count: 8 physical cores, 8 logical processors, using up to 8 threads

Optimize a model with 3388 rows, 12586 columns and 49544 nonzeros
Model fingerprint: 0x3b336970
Model has 17956 general constraints
Variable types: 2 continuous, 12584 integer (816 binary)
Coefficient statistics:
  Matrix range     [6e-02, 3e+05]
  Objective range  [9e-02, 2e+05]
  Bounds range     [1e+00, 2e+07]
  RHS range        [4e+03, 2e+04]
  GenCon rhs range [1e+00, 1e+00]
  GenCon coe range [1e+00, 1e+00]

MIP start from previous solve did not produce a new incumbent solution
Processed MIP start in 4.07 seconds (4.52 work units)

Presolve removed 1738 rows and 6666 columns
Presolve time: 0.47s
Presolved: 1650 rows, 5920 columns, 23713 nonzeros
Presolved model has 4 SOS constraint(s)
Variable types: 0 continuous, 5920 integer (34 binary)

Root relaxation: objective 5.259885e+07, 7603 iterations, 0.15 seconds (0.14 work units)

    Nodes    |    Current Node    |     Objective Bounds      |     Work
 Expl Unexpl |  Obj  Depth IntInf | Incumbent    BestBd   Gap | It/Node Time

     0     0 5.2599e+07    0  340          - 5.2599e+07      -     -    4s
     0     0 5.3701e+07    0  758          - 5.3701e+07      -     -    4s
     0     0 5.3769e+07    0  735          - 5.3769e+07      -     -    4s
     0     0 5.3769e+07    0  747          - 5.3769e+07      -     -    4s
     0     0 5.3769e+07    0  745          - 5.3769e+07      -     -    4s
     0     0 5.3769e+07    0  746          - 5.3769e+07      -     -    4s
H    0     0                    5.957101e+07 5.3769e+07  9.74%     -    4s
     0     0 5.3779e+07    0  834 5.9571e+07 5.3779e+07  9.72%     -    5s
     0     0 5.3823e+07    0  806 5.9571e+07 5.3823e+07  9.65%     -    5s
     0     0 5.3832e+07    0  808 5.9571e+07 5.3832e+07  9.63%     -    5s
     0     0 5.3832e+07    0  808 5.9571e+07 5.3832e+07  9.63%     -    5s
     0     0 5.3871e+07    0  850 5.9571e+07 5.3871e+07  9.57%     -    5s
     0     0 5.3923e+07    0  832 5.9571e+07 5.3923e+07  9.48%     -    5s
H    0     0                    5.739189e+07 5.3923e+07  6.04%     -    5s
     0     2 5.3923e+07    0  816 5.7392e+07 5.3923e+07  6.04%     -    5s
H   33    40                    5.680006e+07 5.4116e+07  4.73%   644    5s
H  101    92                    5.677803e+07 5.4116e+07  4.69%   368    6s
H  103    92                    5.677591e+07 5.4116e+07  4.68%   363    6s
H  105    92                    5.677252e+07 5.4116e+07  4.68%   362    6s
H  106    92                    5.671140e+07 5.4116e+07  4.58%   361    6s
H  107    92                    5.670818e+07 5.4116e+07  4.57%   359    6s
H  237   151                    5.670725e+07 5.4398e+07  4.07%   291    6s
H  480   246                    5.670724e+07 5.4398e+07  4.07%   255    7s
H  481   246                    5.670717e+07 5.4398e+07  4.07%   254    7s
H  613   274                    5.670717e+07 5.4619e+07  3.68%   249    8s
H 1222   537                    5.670693e+07 5.5140e+07  2.76%   217    9s
H 1223   513                    5.669327e+07 5.5140e+07  2.74%   217    9s
H 1258   469                    5.659127e+07 5.5140e+07  2.57%   211    9s
  1449   445 5.6043e+07   13  237 5.6591e+07 5.5204e+07  2.45%   208   10s
H 1996   513                    5.659127e+07 5.5385e+07  2.13%   210   11s
H 2700   503                    5.659102e+07 5.5631e+07  1.70%   232   14s
  3000   446 5.6572e+07   14  479 5.6591e+07 5.5703e+07  1.57%   237   15s
H 3124   400                    5.659102e+07 5.5775e+07  1.44%   244   15s
H 3132   368                    5.653157e+07 5.5782e+07  1.33%   244   15s
H 3313   867                    5.650505e+07 5.5883e+07  1.10%   243   16s
H 3396   867                    5.650503e+07 5.5883e+07  1.10%   237   16s
H 3901   341                    5.650500e+07 5.5883e+07  1.10%   215   17s
H 3903   327                    5.650500e+07 5.5883e+07  1.10%   215   17s
H 4603   357                    5.650500e+07 5.5883e+07  1.10%   195   19s
  5098   486 5.5883e+07   24  167 5.6505e+07 5.5883e+07  1.10%   182   20s
 10812  1385 5.6458e+07   29   64 5.6505e+07 5.5883e+07  1.10%   124   25s
H18068  1870                    5.650500e+07 5.5883e+07  1.10%   104   30s
H18073  1615                    5.649882e+07 5.5883e+07  1.09%   104   30s
H18075  1608                    5.649882e+07 5.5883e+07  1.09%   104   30s
H18095  1558                    5.649882e+07 5.5883e+07  1.09%   104   30s
H20451  1373                    5.649882e+07 5.6095e+07  0.71%   100   32s
 24099   887 5.6277e+07   24  218 5.6499e+07 5.6256e+07  0.43%  96.2   35s
 29083   462     cutoff  115      5.6499e+07 5.6476e+07  0.04%  91.4   40s

Explored 32160 nodes (2681463 simplex iterations) in 41.16 seconds (44.95 work units)
Thread count was 8 (of 8 available processors)

Solution count 10: 5.64988e+07 5.64988e+07 5.64988e+07 ... 5.6505e+07

Optimal solution found (tolerance 1.00e-04)
Best objective 5.649881567850e+07, best bound 5.649881463572e+07, gap 0.0000%
